NAME : rnd11_50.tsp
TYPE : TSP
DIMENSION : 50
EDGE_WEIGHT_TYPE : EUC_2D
NODE_COORD_SECTION
1 455 883
2 66 494
3 361 30
4 26 233
5 793 747
6 479 630
7 989 648
8 154 701
9 83 663
10 82 379
11 187 465
12 897 170
13 367 309
14 60 375
15 601 741
16 18 824
17 311 217
18 887 862
19 827 951
20 120 422
21 346 79
22 606 358
23 22 49
24 526 119
25 78 935
26 652 462
27 7 697
28 929 253
29 388 979
30 739 724
31 819 823
32 844 374
33 298 945
34 153 233
35 385 754
36 187 725
37 369 87
38 203 837
39 94 630
40 815 955
41 175 672
42 454 839
43 284 224
44 416 542
45 420 692
46 905 940
47 137 230
48 672 241
49 476 107
50 148 590
